************************************************************************
file with basedata            : cm118_.bas
initial value random generator: 1563785137
************************************************************************
projects                      :  1
jobs (incl. supersource/sink ):  18
horizon                       :  72
RESOURCES
  - renewable                 :  2   R
  - nonrenewable              :  2   N
  - doubly constrained        :  0   D
************************************************************************
PROJECT INFORMATION:
pronr.  #jobs rel.date duedate tardcost  MPM-Time
    1     16      0       31        4       31
************************************************************************
PRECEDENCE RELATIONS:
jobnr.    #modes  #successors   successors
   1        1          3           2   3   4
   2        1          3           6  10  13
   3        1          3           5   8  10
   4        1          3           7   8  10
   5        1          3           6  12  16
   6        1          1           9
   7        1          3           9  11  15
   8        1          3           9  15  16
   9        1          1          14
  10        1          2          16  17
  11        1          1          12
  12        1          1          14
  13        1          2          14  15
  14        1          1          17
  15        1          1          18
  16        1          1          18
  17        1          1          18
  18        1          0        
************************************************************************
REQUESTS/DURATIONS:
jobnr. mode duration  R 1  R 2  N 1  N 2
------------------------------------------------------------------------
  1      1     0       0    0    0    0
  2      1     3       0    5    0    2
  3      1     4       0    5    9    0
  4      1     6       0    3    0    9
  5      1     6       7    0    5    0
  6      1     5       0    8    0    6
  7      1     2      10    0    0    3
  8      1     6       0    5    0    8
  9      1     1       0    5    4    0
 10      1     4       7    0    0    8
 11      1     7       0    3    5    0
 12      1     1       7    0    0    6
 13      1     8       5    0    0    5
 14      1    10       0    3    5    0
 15      1     1      10    0    0    8
 16      1     3       0    8    0    6
 17      1     5       1    0    8    0
 18      1     0       0    0    0    0
************************************************************************
RESOURCEAVAILABILITIES:
  R 1  R 2  N 1  N 2
   20   14   36   61
************************************************************************
